NAME : amz0312.103735_103735.tour
COMMENT : Cost = 103735_103735
COMMENT : Found by LKH-AMZ [Keld Helsgaun] Sun May 11 12:24:17 2025
COMMENT : TW viol.: 0 #: 0
TYPE : TOUR
DIMENSION : 152
TOUR_SECTION
76
149
132
72
113
5
56
47
22
141
120
75
90
68
95
43
125
66
151
60
127
134
71
14
142
82
123
99
78
130
118
29
44
52
112
126
6
46
122
108
50
110
152
121
117
41
45
114
8
96
138
51
105
49
25
91
54
140
1
116
77
27
129
87
133
128
19
131
40
143
144
18
10
69
85
89
58
3
148
16
2
145
67
21
139
84
106
55
102
88
119
70
146
30
13
28
111
38
86
94
57
4
104
53
101
100
20
34
98
39
74
42
11
97
93
107
64
137
24
61
59
63
135
73
26
103
37
35
9
15
31
48
150
7
79
81
109
36
17
136
12
33
23
32
83
92
80
65
124
115
62
147
-1
EOF
